20 69 154
1 2 3
1 4 1
1 5 3
1 10 4
1 11 2
1 13 2
2 4 4
2 6 5
2 8 4
2 10 1
2 18 2
3 6 2
3 7 3
3 9 1
3 12 4
3 13 3
3 20 2
4 10 5
4 18 1
4 19 3
4 20 5
5 8 3
5 9 3
5 12 2
5 14 1
5 15 3
5 17 1
5 18 5
5 19 3
5 20 5
6 13 4
6 15 2
6 17 3
6 19 2
6 20 2
7 8 4
7 9 2
7 10 3
7 20 5
8 11 3
8 14 5
8 15 5
8 16 4
8 17 1
8 18 4
9 11 1
9 12 5
9 15 1
9 16 2
10 11 5
10 12 4
10 15 4
10 16 4
10 17 2
10 19 4
11 12 1
11 17 4
11 20 2
12 13 2
12 16 3
12 18 1
12 19 2
13 16 1
14 17 3
14 19 3
15 16 1
15 17 3
16 18 4
18 19 3
